% File represents an instance of a Composite Structure problem to be solved by a CP framework
% Created on 2025-03-25 14:05:14.925
T = 60;
n = 25;
m = 40;
edges = [(2, 1),
(7, 6),
(12, 11),
(17, 16),
(21, 22),
(3, 2),
(7, 8),
(12, 13),
(18, 17),
(23, 22),
(4, 3),
(8, 9),
(13, 14),
(19, 18),
(23, 24),
(5, 4),
(10, 9),
(14, 15),
(20, 19),
(24, 25),
(6, 1),
(11, 6),
(11, 16),
(21, 16),
(7, 2),
(7, 12),
(12, 17),
(22, 17),
(8, 3),
(8, 13),
(13, 18),
(18, 23),
(9, 4),
(14, 9),
(14, 19),
(19, 24),
(10, 5),
(15, 10),
(15, 20),
(20, 25)];
counts = [|4, 20, 13, 3,
|4, 22, 13, 11,
|4, 22, 14, 11,
|4, 22, 15, 11,
|4, 22, 16, 11,
|5, 23, 17, 5,
|5, 23, 19, 13,
|5, 23, 18, 13,
|4, 23, 15, 11,
|4, 23, 16, 11,
|5, 23, 18, 10,
|5, 23, 19, 12,
|5, 23, 18, 12,
|5, 23, 18, 11,
|4, 23, 18, 11,
|3, 22, 17, 6,
|3, 22, 18, 6,
|3, 23, 18, 8,
|3, 23, 18, 9,
|3, 23, 18, 10,
|3, 23, 24, 8,
|3, 23, 18, 6,
|3, 23, 18, 7,
|3, 22, 18, 6,
|3, 21, 18, 3|];
